data;
# optimal solution: 27

param n :=	20	;
param range := 15;

param:	Cx	Cy	Dc	usable	:=
1	9	22	3	0	
2	22	5	7	1	
3	8	17	7	1	
4	2	22	8	0	
5	20	29	5	0	
6	2	24	4	0	
7	25	15	9	1	
8	20	24	9	1	
9	15	2	10	1	
10	4	18	9	0	
11	29	47	2	0	
12	34	25	7	1	
13	27	39	4	0	
14	46	33	10	1	
15	33	29	9	0	
16	28	46	4	0	
17	44	28	9	1	
18	33	32	7	1	
19	35	23	2	1	
20	40	39	6	1	;